10
0 8532 1512 2146 6321 6132 3821 8213 5328 2145 
1622 0 4426 8630 8423 4291 9328 6238 6328 5132 
5263 3521 0 5124 2416 5326 3128 3219 4213 6125
2821 3521 2152 0 7243 3912 6328 2419 6219 2140 
3641 6321 3012 2314 0 5322 3928 9542 2140 8431 
7221 3521 2152 9542 6727 0 9231 5294 2137 5126 
5326 6328 7231 7421 6323 3219 0 3912 9214 8329
7523 2147 7234 3742 4281 4215 6878 0 4218 4312
6313 7321 3273 8243 6900 2155 8008 1320 0 6321
2145 2146 6234 4289 8429 9231 5241 7328 7231 0
23819
0 2 6 5 8 7 4 3 9 1 0